p edge 40 192 15
v 2 5 11
v 3 19 29 39
v 1 12
v 4 8 14 16 31
v 4 22 23 24 25
v 2 9 36
v 3 6 18 38
v 5 2 7 33 35 37
v 1 27
v 2 17 32
v 2 15 34
v 2 10 40
v 2 20 26
v 5 3 4 13 28 30
v 2 1 21
e 1 6
e 1 13
e 1 14
e 1 15
e 1 16
e 1 17
e 1 20
e 1 30
e 1 33
e 1 37
e 2 7
e 2 9
e 2 12
e 2 19
e 2 25
e 2 26
e 2 28
e 2 35
e 2 37
e 2 38
e 3 4
e 3 8
e 3 24
e 3 30
e 3 32
e 4 6
e 4 7
e 4 12
e 4 16
e 4 27
e 4 32
e 4 33
e 4 37
e 4 38
e 4 39
e 5 7
e 5 12
e 5 13
e 5 16
e 5 17
e 5 18
e 5 20
e 5 26
e 5 38
e 5 39
e 6 14
e 6 26
e 6 32
e 6 37
e 6 39
e 7 15
e 7 16
e 7 20
e 7 29
e 7 33
e 7 35
e 7 38
e 7 39
e 8 11
e 8 12
e 8 13
e 8 20
e 8 21
e 8 25
e 8 29
e 8 31
e 8 35
e 8 36
e 9 15
e 9 16
e 9 19
e 9 21
e 9 24
e 9 27
e 9 28
e 9 33
e 9 36
e 9 40
e 10 13
e 10 18
e 10 31
e 10 33
e 10 39
e 11 12
e 11 13
e 11 15
e 11 18
e 11 24
e 11 35
e 11 36
e 11 38
e 12 20
e 12 24
e 12 26
e 12 30
e 12 37
e 12 38
e 13 14
e 13 20
e 13 26
e 13 35
e 13 36
e 13 37
e 13 39
e 14 18
e 14 21
e 14 22
e 14 23
e 14 27
e 14 32
e 14 35
e 15 26
e 16 22
e 16 24
e 16 25
e 16 29
e 16 37
e 16 38
e 17 22
e 17 26
e 17 27
e 17 32
e 17 33
e 17 37
e 18 22
e 18 23
e 18 27
e 18 31
e 18 32
e 18 33
e 18 35
e 18 36
e 19 22
e 19 24
e 19 32
e 19 34
e 19 37
e 19 40
e 20 22
e 20 24
e 20 26
e 20 32
e 21 24
e 21 28
e 21 30
e 21 32
e 21 38
e 22 23
e 22 25
e 22 28
e 22 31
e 22 32
e 22 36
e 22 37
e 22 38
e 23 28
e 23 30
e 23 32
e 23 37
e 23 38
e 23 39
e 24 31
e 24 40
e 25 32
e 25 33
e 25 35
e 26 28
e 26 37
e 26 40
e 27 29
e 27 35
e 28 32
e 28 34
e 28 36
e 28 37
e 28 40
e 29 37
e 30 31
e 30 35
e 31 32
e 31 37
e 32 34
e 32 39
e 32 40
e 33 34
e 33 36
e 34 36
e 34 39
e 35 39
e 35 40
e 36 40
e 38 40
